20	3	3
7	9	5	40	41	84	
0	0	0	0	1	4	1	8	10	1	10	2	3	4	6	7	9	10	14	15	19
18	3	2	2	10	3	6	9	2	10	1	12
18	3	2	2	8	6	7	4	5	6	1	17
15	1	2	2	7	7	7	1	5	3	1	5
10	3	2	2	6	5	9	4	10	7	1	8
16	2	2	2	4	10	10	4	8	10	1	20
12	2	2	2	4	8	2	10	7	4	3	17	11	16
13	3	2	2	10	5	9	6	8	4	1	20
11	2	2	2	2	4	1	9	5	5	1	18
14	2	2	2	1	10	10	10	3	9	1	13
14	3	2	2	6	6	9	6	10	7	1	20
13	1	2	2	6	3	4	7	3	10	1	20
15	1	2	2	10	2	5	9	8	2	1	20
15	2	2	2	3	10	6	3	8	10	1	20
18	1	2	2	8	8	9	7	8	2	1	17
10	2	2	2	6	3	7	5	9	6	1	20
13	3	2	2	1	4	9	5	1	2	1	20
12	3	2	2	5	1	4	9	10	1	1	20
19	3	2	2	1	2	1	6	4	8	1	20
0	0	0	0	6	2	6	5	8	3	0
